; SWAP2 DUP2 ADD SWAP2 SWAP1 SWAP2 => SWAP1 DUP1 SWAP3 ADD
(set-option :produce-proofs true)
; 
(set-info :status unknown)
(declare-fun storage_t ((_ BitVec 256) (_ BitVec 256) (_ BitVec 256) Int (_ BitVec 256)) (_ BitVec 256))
(declare-fun storage_s ((_ BitVec 256) (_ BitVec 256) (_ BitVec 256) Int (_ BitVec 256)) (_ BitVec 256))
(declare-fun exc_halt_t (Int) Bool)
(declare-fun exc_halt_s (Int) Bool)
(declare-fun stack_t ((_ BitVec 256) (_ BitVec 256) (_ BitVec 256) Int (_ BitVec 6)) (_ BitVec 256))
(declare-fun stack_s ((_ BitVec 256) (_ BitVec 256) (_ BitVec 256) Int (_ BitVec 6)) (_ BitVec 256))
(declare-fun sc_t (Int) (_ BitVec 6))
(declare-fun sc_s (Int) (_ BitVec 6))
(declare-fun used_gas_t ((_ BitVec 256) (_ BitVec 256) (_ BitVec 256) Int) Int)
(declare-fun used_gas_s ((_ BitVec 256) (_ BitVec 256) (_ BitVec 256) Int) Int)
(assert
 (exists ((x_0 (_ BitVec 256)) (x_1 (_ BitVec 256)) (x_2 (_ BitVec 256)) )(let (($x10975 (forall ((w (_ BitVec 256)) )(let ((?x8602 (storage_t x_0 x_1 x_2 4 w)))
 (let ((?x7247 (storage_s x_0 x_1 x_2 6 w)))
 (= ?x7247 ?x8602))))
 ))
 (let (($x3723 (exc_halt_t 4)))
 (let (($x772 (exc_halt_s 6)))
 (let (($x10342 (= $x772 $x3723)))
 (let (($x286 (forall ((n (_ BitVec 6)) )(let ((?x5873 (stack_t x_0 x_1 x_2 4 n)))
 (let ((?x4974 (stack_s x_0 x_1 x_2 6 n)))
 (let (($x6586 (= ?x4974 ?x5873)))
 (let ((?x1098 (sc_t 4)))
 (let (($x1484 (bvsle ?x1098 n)))
 (or $x1484 $x6586)))))))
 ))
 (let ((?x1098 (sc_t 4)))
 (let ((?x926 (sc_s 6)))
 (let (($x7019 (= ?x926 ?x1098)))
 (let ((?x6809 (used_gas_t x_0 x_1 x_2 0)))
 (let ((?x5134 (used_gas_s x_0 x_1 x_2 0)))
 (let (($x4890 (= ?x5134 ?x6809)))
 (let (($x9363 (forall ((w (_ BitVec 256)) )(let ((?x9648 (storage_t x_0 x_1 x_2 0 w)))
 (let ((?x680 (storage_s x_0 x_1 x_2 0 w)))
 (= ?x680 ?x9648))))
 ))
 (let (($x56 (exc_halt_t 0)))
 (let (($x57 (exc_halt_s 0)))
 (let (($x58 (= $x57 $x56)))
 (let (($x10075 (forall ((n (_ BitVec 6)) )(let ((?x5452 (stack_t x_0 x_1 x_2 0 n)))
 (let ((?x10582 (stack_s x_0 x_1 x_2 0 n)))
 (let (($x9997 (= ?x10582 ?x5452)))
 (let ((?x63 (sc_t 0)))
 (let (($x4866 (bvsle ?x63 n)))
 (or $x4866 $x9997)))))))
 ))
 (let ((?x63 (sc_t 0)))
 (let ((?x72 (sc_s 0)))
 (let (($x73 (= ?x72 ?x63)))
 (let (($x342 (= $x3723 (or (exc_halt_t 3) (not (bvsle (_ bv0 6) (bvadd (_ bv62 6) (sc_t 3))))))))
 (let (($x6528 (forall ((w (_ BitVec 256)) )(let ((?x3012 (storage_t x_0 x_1 x_2 3 w)))
 (let ((?x8602 (storage_t x_0 x_1 x_2 4 w)))
 (= ?x8602 ?x3012))))
 ))
 (let (($x8552 (forall ((n (_ BitVec 6)) )(let ((?x9598 (stack_t x_0 x_1 x_2 3 n)))
 (let ((?x5873 (stack_t x_0 x_1 x_2 4 n)))
 (or (bvsle (bvadd (_ bv62 6) (sc_t 3)) n) (= ?x5873 ?x9598)))))
 ))
 (let (($x2433 (= (used_gas_t x_0 x_1 x_2 4) (+ 3 (used_gas_t x_0 x_1 x_2 3)))))
 (let ((?x6438 (sc_t 3)))
 (let ((?x3065 (bvadd (_ bv62 6) ?x6438)))
 (let ((?x2039 (stack_t x_0 x_1 x_2 3 ?x3065)))
 (let ((?x10141 (bvadd (_ bv63 6) ?x6438)))
 (let ((?x9758 (stack_t x_0 x_1 x_2 3 ?x10141)))
 (let (($x5983 (= (stack_t x_0 x_1 x_2 4 (bvadd (_ bv63 6) ?x1098)) (bvadd ?x9758 ?x2039))))
 (let (($x6783 (exc_halt_t 3)))
 (let (($x10171 (= $x6783 (or (exc_halt_t 2) (not (bvsle (_ bv0 6) (bvadd (_ bv60 6) (sc_t 2))))))))
 (let (($x7234 (forall ((w (_ BitVec 256)) )(let ((?x8624 (storage_t x_0 x_1 x_2 2 w)))
 (let ((?x3012 (storage_t x_0 x_1 x_2 3 w)))
 (= ?x3012 ?x8624))))
 ))
 (let (($x9402 (forall ((n (_ BitVec 6)) )(let ((?x10197 (stack_t x_0 x_1 x_2 2 n)))
 (let ((?x9598 (stack_t x_0 x_1 x_2 3 n)))
 (or (bvsle (bvadd (_ bv60 6) (sc_t 2)) n) (= ?x9598 ?x10197)))))
 ))
 (let ((?x2714 (sc_t 2)))
 (let (($x6299 (= ?x6438 ?x2714)))
 (let ((?x11511 (used_gas_t x_0 x_1 x_2 3)))
 (let (($x9775 (= (stack_t x_0 x_1 x_2 3 (bvadd (_ bv61 6) ?x6438)) (stack_t x_0 x_1 x_2 2 (bvadd (_ bv61 6) ?x2714)))))
 (let ((?x9149 (bvadd (_ bv63 6) ?x2714)))
 (let ((?x9475 (stack_t x_0 x_1 x_2 2 ?x9149)))
 (let (($x6319 (not (= ((_ extract 6 6) (bvadd (_ bv1 7) (concat (_ bv0 1) (sc_t 1)))) (_ bv0 1)))))
 (let (($x3508 (exc_halt_t 1)))
 (let (($x5252 (exc_halt_t 2)))
 (let (($x7596 (forall ((w (_ BitVec 256)) )(let ((?x9213 (storage_t x_0 x_1 x_2 1 w)))
 (let ((?x8624 (storage_t x_0 x_1 x_2 2 w)))
 (= ?x8624 ?x9213))))
 ))
 (let (($x1398 (forall ((n (_ BitVec 6)) )(let ((?x5759 (stack_t x_0 x_1 x_2 1 n)))
 (let ((?x10197 (stack_t x_0 x_1 x_2 2 n)))
 (or (= ?x10197 ?x5759) (bvsle (bvadd (_ bv63 6) (sc_t 1)) n)))))
 ))
 (let (($x6242 (= ?x2714 (bvadd (_ bv1 6) (sc_t 1)))))
 (let ((?x8490 (used_gas_t x_0 x_1 x_2 2)))
 (let ((?x8347 (sc_t 1)))
 (let ((?x4288 (bvadd (_ bv63 6) ?x8347)))
 (let ((?x7959 (stack_t x_0 x_1 x_2 1 ?x4288)))
 (let (($x1350 (= $x3508 (or $x56 (not (bvsle (_ bv0 6) (bvadd (_ bv62 6) ?x63)))))))
 (let (($x6949 (forall ((w (_ BitVec 256)) )(let ((?x9648 (storage_t x_0 x_1 x_2 0 w)))
 (let ((?x9213 (storage_t x_0 x_1 x_2 1 w)))
 (= ?x9213 ?x9648))))
 ))
 (let (($x5928 (forall ((n (_ BitVec 6)) )(let ((?x63 (sc_t 0)))
 (let ((?x11005 (bvadd (_ bv62 6) ?x63)))
 (let (($x3956 (bvsle ?x11005 n)))
 (let ((?x5452 (stack_t x_0 x_1 x_2 0 n)))
 (let ((?x5759 (stack_t x_0 x_1 x_2 1 n)))
 (or (= ?x5759 ?x5452) $x3956)))))))
 ))
 (let (($x8981 (= ?x8347 ?x63)))
 (let (($x677 (= (stack_t x_0 x_1 x_2 1 (bvadd (_ bv62 6) ?x8347)) (stack_t x_0 x_1 x_2 0 (bvadd (_ bv63 6) ?x63)))))
 (let (($x2298 (= $x772 (or (exc_halt_s 5) (not (bvsle (_ bv0 6) (bvadd (_ bv61 6) (sc_s 5))))))))
 (let (($x7998 (forall ((w (_ BitVec 256)) )(let ((?x10320 (storage_s x_0 x_1 x_2 5 w)))
 (let ((?x7247 (storage_s x_0 x_1 x_2 6 w)))
 (= ?x7247 ?x10320))))
 ))
 (let (($x4801 (forall ((n (_ BitVec 6)) )(let ((?x10998 (stack_s x_0 x_1 x_2 5 n)))
 (let ((?x4974 (stack_s x_0 x_1 x_2 6 n)))
 (or (= ?x4974 ?x10998) (bvsle (bvadd (_ bv61 6) (sc_s 5)) n)))))
 ))
 (let ((?x4319 (sc_s 5)))
 (let (($x9018 (= ?x926 ?x4319)))
 (let (($x3466 (= (used_gas_s x_0 x_1 x_2 6) (+ 3 (used_gas_s x_0 x_1 x_2 5)))))
 (let ((?x591 (bvadd (_ bv62 6) ?x4319)))
 (let ((?x6110 (stack_s x_0 x_1 x_2 5 ?x591)))
 (let ((?x3898 (bvadd (_ bv63 6) ?x4319)))
 (let ((?x1415 (stack_s x_0 x_1 x_2 5 ?x3898)))
 (let (($x8020 (= (stack_s x_0 x_1 x_2 6 (bvadd (_ bv63 6) ?x926)) (stack_s x_0 x_1 x_2 5 (bvadd (_ bv61 6) ?x4319)))))
 (let (($x11317 (exc_halt_s 5)))
 (let (($x2101 (= $x11317 (or (exc_halt_s 4) (not (bvsle (_ bv0 6) (bvadd (_ bv62 6) (sc_s 4))))))))
 (let (($x3950 (forall ((w (_ BitVec 256)) )(let ((?x10276 (storage_s x_0 x_1 x_2 4 w)))
 (let ((?x10320 (storage_s x_0 x_1 x_2 5 w)))
 (= ?x10320 ?x10276))))
 ))
 (let (($x6685 (forall ((n (_ BitVec 6)) )(let ((?x4305 (sc_s 4)))
 (let ((?x9777 (bvadd (_ bv62 6) ?x4305)))
 (let (($x8463 (bvsle ?x9777 n)))
 (let ((?x5648 (stack_s x_0 x_1 x_2 4 n)))
 (let ((?x10998 (stack_s x_0 x_1 x_2 5 n)))
 (or (= ?x10998 ?x5648) $x8463)))))))
 ))
 (let ((?x4305 (sc_s 4)))
 (let (($x2579 (= ?x4319 ?x4305)))
 (let ((?x4580 (used_gas_s x_0 x_1 x_2 5)))
 (let (($x7172 (exc_halt_s 4)))
 (let (($x3658 (= $x7172 (or (exc_halt_s 3) (not (bvsle (_ bv0 6) (bvadd (_ bv61 6) (sc_s 3))))))))
 (let (($x1199 (forall ((w (_ BitVec 256)) )(let ((?x5814 (storage_s x_0 x_1 x_2 3 w)))
 (let ((?x10276 (storage_s x_0 x_1 x_2 4 w)))
 (= ?x10276 ?x5814))))
 ))
 (let (($x4597 (forall ((n (_ BitVec 6)) )(let ((?x1594 (stack_s x_0 x_1 x_2 3 n)))
 (let ((?x5648 (stack_s x_0 x_1 x_2 4 n)))
 (or (bvsle (bvadd (_ bv61 6) (sc_s 3)) n) (= ?x5648 ?x1594)))))
 ))
 (let ((?x275 (sc_s 3)))
 (let (($x9884 (= ?x4305 ?x275)))
 (let ((?x4879 (used_gas_s x_0 x_1 x_2 4)))
 (let ((?x9777 (bvadd (_ bv62 6) ?x4305)))
 (let ((?x3211 (stack_s x_0 x_1 x_2 4 ?x9777)))
 (let ((?x314 (bvadd (_ bv63 6) ?x275)))
 (let ((?x5893 (stack_s x_0 x_1 x_2 3 ?x314)))
 (let ((?x9783 (bvadd (_ bv63 6) ?x4305)))
 (let ((?x7469 (stack_s x_0 x_1 x_2 4 ?x9783)))
 (let (($x292 (exc_halt_s 3)))
 (let (($x8083 (= $x292 (or (exc_halt_s 2) (not (bvsle (_ bv0 6) (bvadd (_ bv62 6) (sc_s 2))))))))
 (let (($x6878 (forall ((w (_ BitVec 256)) )(let ((?x11604 (storage_s x_0 x_1 x_2 2 w)))
 (let ((?x5814 (storage_s x_0 x_1 x_2 3 w)))
 (= ?x5814 ?x11604))))
 ))
 (let (($x8333 (forall ((n (_ BitVec 6)) )(let ((?x6544 (stack_s x_0 x_1 x_2 2 n)))
 (let ((?x1594 (stack_s x_0 x_1 x_2 3 n)))
 (let ((?x218 (sc_s 2)))
 (let ((?x3067 (bvadd (_ bv62 6) ?x218)))
 (let (($x5606 (bvsle ?x3067 n)))
 (or $x5606 (= ?x1594 ?x6544))))))))
 ))
 (let ((?x218 (sc_s 2)))
 (let ((?x5789 (bvadd (_ bv63 6) ?x218)))
 (let (($x4278 (= ?x275 ?x5789)))
 (let ((?x1061 (used_gas_s x_0 x_1 x_2 3)))
 (let ((?x7785 (stack_s x_0 x_1 x_2 2 ?x5789)))
 (let (($x9254 (= ?x5893 (bvadd ?x7785 (stack_s x_0 x_1 x_2 2 (bvadd (_ bv62 6) ?x218))))))
 (let (($x7355 (not (= ((_ extract 6 6) (bvadd (_ bv1 7) (concat (_ bv0 1) (sc_s 1)))) (_ bv0 1)))))
 (let (($x3043 (not (bvsle (_ bv0 6) (bvadd (_ bv62 6) (sc_s 1))))))
 (let (($x189 (exc_halt_s 1)))
 (let (($x247 (exc_halt_s 2)))
 (let (($x3486 (forall ((w (_ BitVec 256)) )(let ((?x4264 (storage_s x_0 x_1 x_2 1 w)))
 (let ((?x11604 (storage_s x_0 x_1 x_2 2 w)))
 (= ?x11604 ?x4264))))
 ))
 (let (($x8359 (forall ((n (_ BitVec 6)) )(let ((?x154 (sc_s 1)))
 (let ((?x9948 (bvadd (_ bv62 6) ?x154)))
 (let (($x11368 (bvsle ?x9948 n)))
 (let ((?x931 (stack_s x_0 x_1 x_2 1 n)))
 (let ((?x6544 (stack_s x_0 x_1 x_2 2 n)))
 (or (= ?x6544 ?x931) $x11368)))))))
 ))
 (let (($x513 (= ?x218 (bvadd (_ bv1 6) (sc_s 1)))))
 (let ((?x2559 (used_gas_s x_0 x_1 x_2 2)))
 (let ((?x154 (sc_s 1)))
 (let ((?x9355 (bvadd (_ bv63 6) ?x154)))
 (let ((?x5497 (stack_s x_0 x_1 x_2 1 ?x9355)))
 (let ((?x9948 (bvadd (_ bv62 6) ?x154)))
 (let ((?x7468 (stack_s x_0 x_1 x_2 1 ?x9948)))
 (let (($x11036 (forall ((w (_ BitVec 256)) )(let ((?x680 (storage_s x_0 x_1 x_2 0 w)))
 (let ((?x4264 (storage_s x_0 x_1 x_2 1 w)))
 (= ?x4264 ?x680))))
 ))
 (let (($x6503 (forall ((n (_ BitVec 6)) )(let ((?x10582 (stack_s x_0 x_1 x_2 0 n)))
 (let ((?x931 (stack_s x_0 x_1 x_2 1 n)))
 (or (bvsle (bvadd (_ bv61 6) (sc_s 0)) n) (= ?x931 ?x10582)))))
 ))
 (let (($x10914 (= ?x154 ?x72)))
 (let (($x10867 (= (stack_s x_0 x_1 x_2 1 (bvadd (_ bv61 6) ?x154)) (stack_s x_0 x_1 x_2 0 (bvadd (_ bv63 6) ?x72)))))
 (let (($x6579 (forall ((w (_ BitVec 256)) )(let ((?x680 (storage_s x_0 x_1 x_2 0 w)))
 (= ?x680 (_ bv0 256))))
 ))
 (let (($x10644 (= ?x5134 0)))
 (let (($x1248 (not $x57)))
 (let (($x8638 (= (stack_s x_0 x_1 x_2 0 (_ bv2 6)) x_2)))
 (let (($x9658 (= (stack_s x_0 x_1 x_2 0 (_ bv1 6)) x_1)))
 (let (($x8115 (= (stack_s x_0 x_1 x_2 0 (_ bv0 6)) x_0)))
 (let (($x5315 (= ?x72 (_ bv3 6))))
 (and $x5315 $x8115 $x9658 $x8638 $x1248 $x10644 $x6579 (= ?x5497 (stack_s x_0 x_1 x_2 0 (bvadd (_ bv61 6) ?x72))) $x10867 (= ?x7468 (stack_s x_0 x_1 x_2 0 (bvadd (_ bv62 6) ?x72))) (= (used_gas_s x_0 x_1 x_2 1) (+ 3 ?x5134)) $x10914 $x6503 $x11036 (= $x189 (or $x57 (not (bvsle (_ bv0 6) (bvadd (_ bv61 6) ?x72))))) (= ?x7785 ?x7468) (= (stack_s x_0 x_1 x_2 2 ?x9948) ?x7468) (= (stack_s x_0 x_1 x_2 2 ?x9355) ?x5497) (= ?x2559 (+ 3 (used_gas_s x_0 x_1 x_2 1))) $x513 $x8359 $x3486 (= $x247 (or $x189 $x3043 $x7355)) $x9254 (= ?x1061 (+ 3 ?x2559)) $x4278 $x8333 $x6878 $x8083 (= ?x7469 (stack_s x_0 x_1 x_2 3 (bvadd (_ bv61 6) ?x275))) (= (stack_s x_0 x_1 x_2 4 (bvadd (_ bv61 6) ?x4305)) ?x5893) (= ?x3211 (stack_s x_0 x_1 x_2 3 (bvadd (_ bv62 6) ?x275))) (= ?x4879 (+ 3 ?x1061)) $x9884 $x4597 $x1199 $x3658 (= ?x1415 ?x3211) (= ?x6110 ?x7469) (= ?x4580 (+ 3 ?x4879)) $x2579 $x6685 $x3950 $x2101 $x8020 (= (stack_s x_0 x_1 x_2 6 (bvadd (_ bv61 6) ?x926)) ?x1415) (= (stack_s x_0 x_1 x_2 6 (bvadd (_ bv62 6) ?x926)) ?x6110) $x3466 $x9018 $x4801 $x7998 $x2298 (= ?x7959 (stack_t x_0 x_1 x_2 0 (bvadd (_ bv62 6) ?x63))) $x677 (= (used_gas_t x_0 x_1 x_2 1) (+ 3 ?x6809)) $x8981 $x5928 $x6949 $x1350 (= ?x9475 ?x7959) (= (stack_t x_0 x_1 x_2 2 ?x4288) ?x7959) (= ?x8490 (+ 3 (used_gas_t x_0 x_1 x_2 1))) $x6242 $x1398 $x7596 (= $x5252 (or $x3508 $x6319 (not (bvsle (_ bv0 6) ?x4288)))) (= ?x9758 (stack_t x_0 x_1 x_2 2 (bvadd (_ bv60 6) ?x2714))) (= (stack_t x_0 x_1 x_2 3 (bvadd (_ bv60 6) ?x6438)) ?x9475) $x9775 (= ?x2039 (stack_t x_0 x_1 x_2 2 (bvadd (_ bv62 6) ?x2714))) (= ?x11511 (+ 3 ?x8490)) $x6299 $x9402 $x7234 $x10171 $x5983 $x2433 (= ?x1098 ?x10141) $x8552 $x6528 $x342 $x73 $x10075 $x58 $x9363 $x4890 (not (and $x7019 $x286 $x10342 $x10975)))))))))))))))))))))))))))))))))))))))))))))))))))))))))))))))))))))))))))))))))))))))))))))))))))))))))))))))))))))))))))
 )
(check-sat)
(get-proof)
